StudentsNr = 10;
InstructorsNr = 97;
DaysNr = 1;
SlotsPerDay = 15;
AvailabilitySlotsLenght = 1;
RoomNr = 1;
ProgrammNr = 2;
DegreeNr = 2;
RolesNr = 2;
CoursesNr = 5;
InstructorsProgramm = [{2}, {1, 2}, {1}, {1, 2}, {2}, {1}, {1, 2}, {2}, {2}, {2}, {1}, {1, 2}, {1, 2}, {1}, {1}, {1, 2}, {1, 2}, {1, 2}, {2}, {1}, {1}, {1}, {1}, {2}, {1, 2}, {1}, {1}, {1}, {2}, {1, 2}, {2}, {2}, {2}, {1}, {2}, {1, 2}, {2}, {2}, {1, 2}, {1, 2}, {1}, {1, 2}, {1, 2}, {1}, {1, 2}, {1}, {1, 2}, {1}, {1, 2}, {2}, {1}, {1}, {2}, {1}, {2}, {1, 2}, {2}, {1}, {1, 2}, {2}, {2}, {1}, {1}, {2}, {1}, {1, 2}, {2}, {2}, {1}, {2}, {1}, {1}, {1}, {1}, {2}, {2}, {1}, {1}, {2}, {2}, {1, 2}, {1, 2}, {1, 2}, {2}, {2}, {1, 2}, {1}, {2}, {1}, {1}, {2}, {2}, {2}, {1, 2}, {1}, {2}, {1}];
InstructorRolesPerProgramm = [|{3, 7, 11, 13, 16, 18, 20, 25, 26, 27, 30, 34, 36, 40, 43, 44, 46, 49, 66, 78, 83, 86, 87, 94}, {4, 14, 15, 22, 25, 28, 41, 42, 45, 48, 63, 69, 72, 77, 78}|{7, 9, 10, 13, 16, 18, 19, 25, 30, 33, 36, 37, 38, 40, 43, 49, 50, 53, 60, 66, 67, 70, 76, 83, 86, 92, 94, 96}, {4, 5, 25, 31, 35, 42, 45, 50, 57, 61, 64, 68, 75, 79, 80, 84, 91, 92}|];
InstructorsAvailability = [|1, 0, 1, 1, 0, 1, 1, 1, 0, 1, 1, 1, 1, 1, 1, |0, 0, 0, 0, 1, 0, 1, 1, 1, 0, 1, 0, 0, 0, 1, |0, 0, 0, 1, 1, 1, 1, 1, 1, 1, 1, 1, 1, 1, 1, |0, 1, 1, 1, 1, 1, 1, 1, 1, 1, 1, 1, 1, 1, 1, |0, 1, 1, 1, 1, 1, 1, 0, 1, 1, 1, 1, 1, 1, 0, |1, 1, 1, 1, 1, 0, 0, 1, 1, 1, 1, 1, 1, 0, 0, |1, 0, 1, 1, 1, 1, 1, 1, 1, 1, 1, 1, 1, 1, 1, |1, 0, 1, 1, 0, 0, 1, 1, 1, 1, 1, 1, 1, 1, 1, |1, 1, 1, 1, 1, 1, 1, 1, 1, 1, 1, 1, 1, 1, 1, |1, 1, 1, 1, 1, 1, 1, 1, 1, 1, 1, 1, 1, 1, 1, |1, 1, 1, 1, 1, 1, 1, 1, 1, 1, 1, 0, 1, 1, 1, |0, 1, 1, 0, 1, 1, 1, 1, 1, 1, 1, 1, 1, 1, 1, |0, 1, 1, 1, 1, 1, 1, 1, 1, 1, 1, 1, 1, 1, 1, |0, 1, 1, 1, 1, 1, 0, 0, 0, 1, 1, 1, 1, 1, 1, |1, 1, 1, 1, 0, 1, 1, 1, 0, 1, 1, 1, 1, 1, 1, |0, 0, 1, 1, 1, 1, 1, 0, 0, 0, 1, 1, 1, 1, 1, |0, 1, 1, 1, 1, 1, 1, 1, 1, 1, 1, 1, 1, 1, 0, |0, 0, 0, 1, 1, 1, 1, 1, 1, 1, 1, 1, 1, 1, 1, |0, 0, 1, 1, 1, 1, 1, 0, 1, 1, 1, 1, 0, 1, 1, |1, 1, 1, 1, 1, 1, 1, 1, 1, 1, 1, 0, 1, 1, 1, |1, 1, 1, 0, 0, 1, 0, 0, 1, 1, 1, 0, 1, 0, 1, |0, 1, 1, 1, 0, 0, 0, 1, 1, 1, 1, 1, 1, 1, 1, |1, 1, 1, 1, 1, 1, 1, 1, 1, 0, 1, 1, 1, 1, 0, |0, 1, 1, 0, 0, 0, 1, 1, 1, 1, 1, 0, 1, 1, 1, |0, 1, 0, 1, 1, 0, 0, 1, 0, 0, 0, 0, 1, 1, 1, |1, 1, 1, 1, 1, 1, 1, 1, 1, 1, 1, 1, 1, 0, 0, |1, 1, 1, 1, 1, 1, 1, 1, 1, 1, 1, 1, 1, 1, 1, |0, 1, 1, 1, 1, 1, 1, 1, 1, 1, 1, 1, 0, 0, 1, |1, 1, 1, 1, 1, 1, 0, 0, 1, 1, 1, 1, 1, 1, 1, |0, 1, 1, 1, 1, 1, 1, 1, 1, 1, 1, 0, 1, 0, 1, |0, 1, 1, 0, 0, 0, 1, 0, 1, 1, 0, 0, 1, 1, 1, |1, 1, 1, 1, 1, 1, 1, 0, 1, 1, 1, 1, 1, 1, 1, |0, 1, 1, 1, 1, 1, 1, 0, 1, 1, 1, 1, 0, 1, 1, |1, 1, 1, 1, 1, 1, 1, 1, 1, 1, 0, 1, 0, 1, 1, |0, 1, 1, 1, 1, 1, 1, 1, 1, 1, 1, 1, 1, 1, 1, |1, 1, 1, 1, 1, 1, 1, 1, 1, 1, 1, 1, 0, 1, 1, |0, 0, 0, 1, 1, 1, 1, 0, 0, 1, 1, 1, 1, 1, 1, |0, 0, 0, 0, 1, 0, 1, 0, 1, 1, 1, 1, 1, 1, 1, |1, 1, 1, 0, 0, 1, 1, 0, 1, 1, 0, 1, 1, 1, 1, |1, 1, 1, 0, 1, 0, 0, 0, 0, 1, 1, 1, 1, 0, 1, |0, 1, 0, 1, 1, 1, 1, 0, 1, 1, 1, 1, 1, 1, 1, |0, 1, 0, 1, 1, 1, 1, 1, 1, 1, 0, 1, 0, 0, 1, |1, 1, 0, 0, 1, 1, 1, 0, 0, 0, 1, 1, 1, 1, 1, |0, 1, 1, 1, 0, 1, 1, 1, 0, 0, 1, 1, 1, 1, 1, |1, 1, 1, 1, 1, 1, 1, 1, 1, 0, 0, 0, 1, 0, 0, |1, 1, 1, 1, 0, 1, 1, 1, 0, 1, 1, 0, 1, 1, 1, |1, 1, 1, 1, 0, 1, 1, 1, 0, 0, 1, 1, 1, 1, 1, |0, 1, 1, 1, 1, 1, 1, 0, 1, 0, 1, 0, 1, 1, 1, |0, 0, 1, 1, 1, 1, 1, 0, 1, 1, 1, 1, 1, 0, 1, |1, 0, 1, 1, 0, 0, 1, 1, 1, 0, 1, 1, 1, 1, 0, |0, 0, 1, 1, 1, 1, 1, 0, 1, 1, 0, 0, 1, 1, 1, |0, 1, 1, 1, 1, 1, 0, 0, 0, 0, 1, 1, 1, 0, 1, |1, 1, 1, 1, 0, 1, 0, 1, 0, 1, 1, 1, 1, 1, 1, |1, 1, 1, 1, 1, 0, 0, 1, 1, 1, 1, 1, 1, 1, 1, |1, 1, 1, 1, 1, 1, 1, 1, 1, 0, 0, 1, 1, 1, 1, |1, 0, 1, 0, 1, 1, 1, 1, 1, 0, 0, 1, 1, 1, 1, |1, 1, 0, 1, 1, 1, 1, 1, 1, 1, 1, 1, 0, 1, 0, |0, 0, 0, 1, 1, 1, 1, 1, 1, 1, 0, 1, 1, 1, 1, |0, 0, 1, 1, 1, 0, 0, 0, 1, 1, 1, 0, 1, 1, 0, |0, 1, 1, 1, 1, 1, 1, 0, 0, 1, 1, 1, 0, 0, 1, |0, 1, 1, 1, 1, 1, 1, 1, 1, 1, 0, 0, 1, 1, 1, |0, 0, 0, 0, 1, 1, 1, 1, 1, 0, 1, 1, 1, 0, 1, |0, 1, 1, 1, 1, 1, 1, 1, 1, 1, 1, 1, 1, 1, 0, |0, 0, 1, 1, 1, 1, 1, 1, 1, 0, 0, 0, 1, 1, 1, |0, 0, 0, 1, 1, 1, 1, 1, 1, 1, 1, 1, 1, 1, 1, |1, 1, 1, 1, 1, 1, 1, 1, 0, 1, 1, 0, 1, 0, 1, |1, 1, 1, 1, 1, 1, 0, 1, 1, 1, 1, 1, 1, 1, 1, |0, 0, 1, 1, 1, 1, 1, 1, 1, 1, 1, 1, 1, 1, 1, |0, 1, 0, 1, 1, 1, 1, 1, 0, 1, 1, 1, 1, 1, 1, |0, 1, 1, 1, 1, 1, 1, 1, 1, 1, 1, 1, 1, 1, 1, |0, 0, 1, 1, 1, 1, 1, 1, 1, 1, 1, 1, 1, 1, 0, |0, 1, 1, 1, 0, 0, 1, 1, 1, 1, 1, 1, 0, 0, 1, |0, 1, 1, 1, 1, 1, 1, 1, 1, 1, 1, 0, 1, 1, 0, |0, 1, 1, 1, 1, 1, 1, 1, 0, 0, 1, 1, 1, 0, 1, |1, 1, 1, 1, 1, 1, 1, 1, 1, 1, 1, 1, 1, 1, 1, |1, 1, 1, 1, 1, 1, 0, 1, 0, 1, 1, 1, 1, 1, 0, |0, 0, 1, 1, 1, 1, 0, 1, 1, 1, 1, 1, 1, 1, 1, |1, 0, 1, 1, 0, 0, 0, 1, 1, 1, 1, 1, 1, 1, 1, |0, 1, 0, 1, 1, 0, 0, 0, 0, 1, 0, 0, 1, 1, 0, |0, 1, 1, 1, 1, 1, 1, 0, 0, 0, 0, 1, 1, 0, 1, |0, 0, 1, 1, 1, 1, 1, 1, 1, 1, 0, 1, 1, 1, 1, |0, 1, 1, 1, 1, 1, 1, 1, 1, 1, 1, 1, 1, 1, 1, |0, 1, 1, 1, 1, 1, 1, 1, 1, 1, 1, 1, 1, 1, 1, |1, 1, 1, 1, 1, 0, 1, 1, 1, 1, 1, 0, 0, 0, 0, |1, 1, 1, 1, 1, 1, 0, 1, 0, 1, 1, 1, 0, 1, 0, |0, 1, 1, 1, 1, 1, 0, 0, 1, 1, 1, 0, 1, 1, 1, |1, 1, 1, 1, 1, 1, 1, 1, 1, 1, 1, 1, 1, 1, 1, |0, 1, 1, 1, 1, 1, 1, 0, 1, 1, 1, 1, 1, 0, 1, |1, 1, 1, 0, 1, 1, 1, 1, 1, 1, 1, 1, 1, 1, 1, |1, 1, 1, 1, 1, 1, 1, 1, 1, 0, 1, 1, 1, 1, 1, |0, 1, 1, 1, 1, 1, 1, 1, 1, 1, 1, 1, 1, 1, 1, |1, 1, 1, 0, 0, 0, 1, 1, 0, 1, 1, 1, 1, 1, 1, |1, 0, 1, 1, 1, 1, 1, 1, 1, 1, 1, 1, 1, 1, 1, |1, 1, 1, 0, 1, 1, 1, 1, 1, 1, 1, 1, 1, 1, 1, |0, 1, 1, 1, 0, 1, 1, 1, 0, 0, 0, 0, 1, 1, 1, |1, 1, 1, 1, 1, 1, 0, 1, 0, 1, 1, 1, 1, 0, 1, |0, 1, 1, 1, 1, 0, 1, 1, 1, 1, 0, 1, 1, 1, 1|];
StudentsProgramm = [1, 2, 2, 2, 2, 2, 2, 2, 2, 1];
StudentsDegree = [2, 2, 2, 1, 1, 1, 2, 2, 1, 2];
StudentsSupervisorId = [48, 24, 32, 33, 40, 4, 18, 50, 92, 87];
StudentsCourseIds = [{1, 2, 3, 4, 5}, {1, 2, 3, 4, 5}, {1, 2, 3, 4, 5}, {2, 4, 5}, {1, 2, 3}, {2, 3, 4}, {1, 2, 3, 4, 5}, {1, 2, 3, 4, 5}, {1, 3, 4}, {1, 2, 3, 4, 5}];
StudentsAvailability = [|0, 0, 0, 0, 1, 1, 0, 0, 0, 0, 1, 0, 1, 1, 1, |0, 0, 0, 1, 1, 1, 1, 1, 1, 1, 1, 1, 1, 1, 1, |1, 1, 0, 0, 1, 1, 1, 1, 1, 1, 1, 1, 1, 1, 1, |1, 1, 1, 1, 1, 0, 1, 1, 1, 1, 1, 1, 1, 0, 0, |1, 1, 1, 1, 1, 1, 1, 1, 1, 1, 1, 1, 1, 0, 1, |0, 1, 1, 1, 1, 1, 1, 1, 1, 1, 1, 1, 1, 1, 0, |1, 0, 0, 0, 1, 1, 1, 1, 1, 1, 1, 1, 1, 1, 1, |0, 1, 1, 1, 1, 1, 1, 1, 1, 1, 1, 1, 1, 1, 1, |1, 1, 1, 1, 1, 1, 1, 1, 1, 1, 1, 1, 1, 1, 1, |0, 0, 0, 1, 1, 1, 1, 1, 1, 1, 0, 1, 1, 1, 0|];
TheoryticalMinCard = [0, 0, 0, 0, 0, 0, 0, 0, 0, 0];
CoursesInstructorIds = [{1, 2, 4, 5, 6, 7, 10, 11, 12, 13, 14, 15, 16, 17, 18, 20, 22, 26, 27, 28, 29, 33, 34, 41, 42, 44, 46, 49, 51, 56, 58, 59, 61, 62, 63, 66, 67, 68, 69, 71, 72, 73, 74, 75, 76, 77, 79, 81, 82, 84, 89, 90, 92, 93, 95, 96}, {3, 4, 9, 12, 16, 18, 23, 24, 26, 27, 28, 29, 30, 31, 34, 40, 41, 44, 45, 48, 53, 56, 65, 66, 68, 70, 71, 72, 74, 75, 77, 79, 81, 85, 89, 90, 92, 94, 96, 97}, {3, 4, 6, 7, 9, 12, 14, 16, 17, 19, 22, 23, 24, 25, 26, 30, 32, 39, 41, 43, 45, 49, 50, 52, 53, 55, 58, 60, 61, 66, 67, 68, 73, 75, 78, 80, 81, 83, 87, 88, 89, 91, 97}, {5, 6, 7, 10, 12, 16, 20, 26, 27, 35, 41, 42, 45, 51, 55, 74, 79, 84, 92}, {1, 5, 16, 46, 47, 48, 52, 53, 58, 75, 78}];
RolesDemands = [20, 5];
RolesContinuity = [1];
ExamLen = [2, 2, 2, 2, 2, 2, 2, 2, 2, 2];
LunchTsMinLen = 0;
LunchStarts = [7..8];
SupervisorAvailable = 5;
OptimalLunchLenght = [1, 0];
OptimalStartTs = [1, 0];
OptimalFinishTs = [0, 15];
MinimizeRooms = 100;
RolesSoftContinuity = [|1, 2|3, 0|];
SameDegreeInRoom = 10;
Mergeability = 1;
